c graph converted from Delauney Triangulation format
c weights on edges removed (lost)
x low 0.00
p edge 136 377
n 0 1.00
n 7 1.00
n 1 1.00
n 6 1.00
n 5 1.00
n 4 1.00
n 16 1.00
n 8 1.00
n 2 1.00
n 15 1.00
n 14 1.00
n 11 1.00
n 3 1.00
n 10 1.00
n 9 1.00
n 13 1.00
n 12 1.00
n 28 1.00
n 29 1.00
n 17 1.00
n 18 1.00
n 27 1.00
n 26 1.00
n 24 1.00
n 25 1.00
n 23 1.00
n 22 1.00
n 21 1.00
n 20 1.00
n 19 1.00
n 31 1.00
n 42 1.00
n 48 1.00
n 51 1.00
n 30 1.00
n 32 1.00
n 33 1.00
n 45 1.00
n 44 1.00
n 35 1.00
n 43 1.00
n 41 1.00
n 40 1.00
n 39 1.00
n 38 1.00
n 37 1.00
n 36 1.00
n 34 1.00
n 46 1.00
n 47 1.00
n 49 1.00
n 50 1.00
n 62 1.00
n 63 1.00
n 61 1.00
n 60 1.00
n 53 1.00
n 58 1.00
n 59 1.00
n 54 1.00
n 57 1.00
n 56 1.00
n 55 1.00
n 65 1.00
n 76 1.00
n 87 1.00
n 52 1.00
n 72 1.00
n 84 1.00
n 64 1.00
n 66 1.00
n 67 1.00
n 79 1.00
n 78 1.00
n 69 1.00
n 77 1.00
n 75 1.00
n 74 1.00
n 73 1.00
n 71 1.00
n 70 1.00
n 68 1.00
n 80 1.00
n 81 1.00
n 82 1.00
n 83 1.00
n 96 1.00
n 97 1.00
n 95 1.00
n 94 1.00
n 92 1.00
n 93 1.00
n 88 1.00
n 91 1.00
n 90 1.00
n 89 1.00
n 86 1.00
n 85 1.00
n 118 1.00
n 98 1.00
n 99 1.00
n 121 1.00
n 100 1.00
n 101 1.00
n 113 1.00
n 112 1.00
n 103 1.00
n 111 1.00
n 110 1.00
n 109 1.00
n 108 1.00
n 107 1.00
n 106 1.00
n 105 1.00
n 104 1.00
n 102 1.00
n 114 1.00
n 115 1.00
n 116 1.00
n 117 1.00
n 130 1.00
n 131 1.00
n 129 1.00
n 128 1.00
n 126 1.00
n 127 1.00
n 122 1.00
n 125 1.00
n 124 1.00
n 123 1.00
n 120 1.00
n 119 1.00
n 135 1.00
n 134 1.00
n 133 1.00
n 132 1.00
e 0 7
e 0 1
e 0 6
e 0 5
e 0 4
e 0 16
e 1 7
e 1 8
e 1 2
e 1 15
e 1 14
e 2 11
e 2 3
e 2 10
e 2 9
e 2 8
e 2 13
e 3 11
e 3 12
e 4 5
e 4 28
e 4 29
e 4 17
e 5 16
e 5 18
e 5 28
e 6 7
e 6 16
e 6 18
e 6 27
e 6 26
e 7 15
e 7 26
e 8 9
e 8 14
e 8 24
e 8 25
e 9 13
e 9 24
e 10 11
e 10 13
e 10 23
e 10 22
e 11 12
e 11 21
e 11 22
e 12 21
e 13 24
e 13 20
e 13 23
e 14 25
e 14 15
e 14 19
e 14 31
e 14 42
e 14 48
e 15 26
e 15 19
e 16 18
e 17 29
e 17 51
e 18 28
e 18 27
e 18 30
e 19 26
e 19 31
e 20 24
e 20 23
e 20 32
e 21 22
e 21 33
e 22 23
e 22 33
e 22 45
e 22 44
e 23 32
e 23 44
e 24 25
e 24 32
e 24 35
e 24 43
e 25 43
e 25 42
e 26 27
e 26 31
e 26 41
e 26 40
e 27 30
e 27 40
e 28 29
e 28 30
e 28 39
e 29 39
e 29 38
e 29 51
e 30 40
e 30 37
e 30 39
e 31 41
e 31 36
e 31 48
e 32 44
e 32 35
e 33 45
e 33 34
e 34 45
e 34 46
e 35 44
e 35 43
e 35 47
e 36 41
e 36 49
e 36 48
e 37 40
e 37 39
e 37 50
e 38 39
e 38 51
e 38 62
e 38 63
e 39 50
e 39 62
e 40 41
e 40 50
e 40 61
e 40 60
e 41 49
e 41 53
e 41 60
e 42 43
e 42 48
e 42 58
e 42 59
e 43 47
e 43 58
e 44 45
e 44 47
e 44 54
e 44 57
e 44 56
e 45 46
e 45 55
e 45 56
e 46 55
e 47 58
e 47 54
e 48 59
e 48 49
e 48 53
e 48 65
e 48 76
e 48 87
e 49 53
e 50 62
e 50 52
e 50 61
e 51 63
e 51 72
e 51 84
e 52 62
e 52 61
e 52 64
e 53 60
e 53 65
e 54 58
e 54 57
e 54 66
e 55 56
e 55 67
e 56 57
e 56 67
e 56 79
e 56 78
e 57 66
e 57 78
e 58 59
e 58 66
e 58 69
e 58 77
e 59 77
e 59 76
e 60 61
e 60 65
e 60 75
e 60 74
e 61 64
e 61 74
e 62 63
e 62 64
e 62 73
e 63 73
e 63 72
e 64 74
e 64 71
e 64 73
e 65 75
e 65 70
e 65 87
e 66 78
e 66 69
e 67 79
e 67 68
e 68 79
e 68 80
e 69 78
e 69 77
e 69 81
e 70 75
e 70 82
e 70 87
e 71 74
e 71 73
e 71 83
e 72 73
e 72 84
e 72 96
e 72 97
e 73 83
e 73 96
e 74 75
e 74 83
e 74 95
e 74 94
e 75 82
e 75 94
e 76 77
e 76 87
e 76 92
e 76 93
e 77 81
e 77 92
e 78 79
e 78 81
e 78 88
e 78 91
e 78 90
e 79 80
e 79 90
e 80 90
e 80 89
e 81 92
e 81 88
e 82 94
e 82 86
e 82 87
e 83 96
e 83 85
e 83 95
e 84 97
e 84 118
e 85 96
e 85 95
e 85 98
e 86 94
e 86 99
e 86 87
e 87 93
e 87 99
e 87 121
e 88 92
e 88 91
e 88 100
e 89 90
e 89 101
e 90 91
e 90 101
e 90 113
e 90 112
e 91 100
e 91 112
e 92 93
e 92 100
e 92 103
e 92 111
e 93 111
e 93 110
e 93 121
e 94 95
e 94 99
e 94 109
e 94 108
e 95 98
e 95 108
e 96 97
e 96 98
e 96 107
e 97 107
e 97 106
e 97 118
e 98 108
e 98 105
e 98 107
e 99 109
e 99 104
e 99 121
e 100 112
e 100 103
e 101 113
e 101 102
e 102 113
e 102 114
e 103 112
e 103 111
e 103 115
e 104 109
e 104 116
e 104 121
e 105 108
e 105 107
e 105 117
e 106 107
e 106 118
e 106 130
e 106 131
e 107 117
e 107 130
e 108 109
e 108 117
e 108 129
e 108 128
e 109 116
e 109 128
e 110 111
e 110 121
e 110 126
e 110 127
e 111 115
e 111 126
e 112 113
e 112 115
e 112 122
e 112 125
e 112 124
e 113 114
e 113 123
e 113 124
e 114 123
e 115 126
e 115 122
e 116 128
e 116 120
e 116 121
e 117 130
e 117 119
e 117 129
e 118 131
e 119 130
e 119 129
e 119 135
e 120 128
e 120 134
e 120 121
e 121 127
e 121 134
e 122 126
e 122 125
e 122 133
e 123 124
e 123 132
e 124 125
e 124 132
e 124 133
e 125 133
e 126 127
e 126 133
e 127 133
e 127 134
e 128 129
e 128 134
e 128 135
e 129 135
e 130 131
e 130 135
e 131 135
e 132 133
e 133 134
e 134 135
